p tdp 20 96
1 3
1 4
1 5
1 8
1 9
1 10
1 12
1 13
1 14
1 15
1 16
1 17
1 19
2 3
2 4
2 5
2 6
2 7
2 8
2 10
2 13
2 15
2 16
2 18
2 19
2 20
3 5
3 12
3 13
3 20
4 5
4 6
4 7
4 13
4 15
4 16
5 7
5 8
5 9
5 10
5 12
5 16
5 18
5 19
6 7
6 8
6 10
6 11
6 12
6 13
6 16
6 19
7 8
7 12
7 15
7 16
7 19
7 20
8 9
8 11
8 13
8 17
8 18
8 19
8 20
9 12
9 16
9 18
9 19
9 20
10 14
10 16
10 17
10 19
11 13
11 14
11 16
11 18
11 19
12 14
12 15
12 19
12 20
13 14
13 18
13 20
14 17
14 18
14 19
15 17
15 18
16 18
16 20
17 19
17 20
18 19
